WARNING: for repeatability, setting FPU to use double precision
============================[ Problem Statistics ]=============================
|                                                                             |
|  Number of variables:            50                                         |
|  Number of clauses:             218                                         |
|  Parse time:                   0.00 s                                       |
|                                                                             |
============================[ Search Statistics ]==============================
| Conflicts |          ORIGINAL         |          LEARNT          | Progress |
|           |    Vars  Clauses Literals |    Limit  Clauses Lit/Cl |          |
===============================================================================
|       100 |      48      213      639 |       79       69      5 |  4.123 % |
===============================================================================
restarts              : 2
conflicts             : 109            (66707 /sec)
decisions             : 120            (0.00 % random) (73439 /sec)
propagations          : 1571           (961444 /sec)
conflict literals     : 459            (14.68 % deleted)
Memory used           : 20.00 MB
CPU time              : 0.001634 s

UNSATISFIABLE
